grad conp full nosym cart
cell
   5.64000   5.64000   5.64000  90.000000  90.000000  90.000000
fractional  1   
Na    core 0.0000000 0.0000000 0.0000000 1.00000000 1.00000 0.00000             
Cl    core 0.5000000 0.5000000 0.5000000 -1.0000000 1.00000 0.00000             
space
225
cell
   5.64000   5.66000   5.64000  90.000000  90.000000  90.000000
cart
Na     0.000000     0.000000     0.000000
Na     0.020000     2.800000     2.830000
Na     2.820000     0.000000     2.820000
Na     2.820000     2.820000     0.000000
Cl     2.820000     2.820000     2.820000
Cl     2.820000     0.000000     0.000000
Cl     0.000000     2.820000     0.000000
Cl     0.000000     0.000000     2.820000
library nacl.lib
