single verbose strict
name fluorite
cell
5.4531 5.4531 5.4531 90 90 90
cart
Ce    0.00000   0.00000   0.00000 
Ce    0.00000   2.72655   2.72655 
Ce    2.72655   0.00000   2.72655 
Ce    2.72655   2.72655  -0.00000 
O     1.36327   1.36327   1.36327 
O     1.36327   4.08982   4.08982 
O     4.08982   1.36327   4.08982 
O     4.08982   4.08982   1.36327 
O     4.08982   4.08982   4.08982 
O     4.08982   1.36327   1.36327 
O     1.36327   4.08982   1.36327 
O     1.36327   1.36327   4.08982 
reaxff_library ffield_CeO
reaxfftol 0.001 0.005
