single verb strict
cell
10.09469    3.01717    4.462579   90.00000   90.00000   90.00000
cart
Fe                  1.75124   0.75429   4.33670 
Fe                  3.29610   2.26287   2.10541 
Fe                  6.79859   0.75429   2.35716 
Fe                  8.34345   2.26287   0.12587 
H                   9.60056   0.75429   2.48210 
H                   5.54147   2.26287   0.25082 
H                   4.55322   0.75429   4.21175 
H                   0.49412   2.26287   1.98046 
O                   7.91026   0.75429   0.97669 
O                   7.23177   2.26287   3.20798 
O                   2.86291   0.75429   1.25459 
O                   2.18442   2.26287   3.48588 
O                   9.70427   0.75429   3.45554 
O                   5.43777   2.26287   1.22426 
O                   4.65692   0.75429   3.23831 
O                   0.39042   2.26287   1.00702 
reaxff_library ffield_FeOH
reaxfftol 0.001 0.005
