single full nosym verb
cell
4.08 4.08 4.08 90 90 90
frac
Li core 0.0 0.0 0.0 
F  core 0.5 0.5 0.5
space
225
cell
5.00 5.00 5.00 90 90 90
frac
Li core 0.0 0.0 0.0 
F  core 0.5 0.5 0.5
space
225

reaxff_library ffield_CHOSMoNiLiBFPN
#reaxfftol 0.001 0.005
