opti conp prop dcharge cart phon noden 
vectors
     4.914850000     0.000000000     0.000000000
    -2.457425000     4.256384956     0.000000000
     0.000000000     0.000000000     5.406290000
cartesian 
Si    core  2.750104354 -0.074439326  1.551064565  0.0000000  1.0000  0.000000
Si    core -0.936033157  2.053753168  3.353161232  0.0000000  1.0000  0.000000
Si    core  1.521391833  2.053753149  5.155257898  0.0000000  1.0000  0.000000
O     core  1.879889103  0.841936627  0.650016199  0.0000000  1.0000  0.000000
O     core  3.620319613  0.841936677  2.452112866  0.0000000  1.0000  0.000000
O     core  2.750104314  2.349193687  4.254209532  0.0000000  1.0000  0.000000
O     core -0.577535898  3.265569683  2.452112934  0.0000000  1.0000  0.000000
O     core  1.162894612  3.265569637  0.650016267  0.0000000  1.0000  0.000000
O     core  0.292679317  1.758312625  4.254209601  0.0000000  1.0000  0.000000
library nodump reaxff_sio2
gtol 0.00001
gmax 0.00001
dump cart example85.res
