single mole 
title
This example of using AA-CLP is based on the CLP example 1_sample 
from the original code of Gavezzotti
end
cell
11.4300    6.5910   11.3950   90.0000   95.6800   90.0000
frac
C3  0.15340   0.56400   0.06740 
C3  0.24620   0.48770   0.00950 
C3  0.29830   0.30470   0.04160 
C3  0.26040   0.19610   0.13380 
C3  0.16960   0.26760   0.19310 
C3  0.11650   0.44960   0.15980 
C1  0.09030   0.75730   0.03760 
C1  0.36590   0.73840  -0.06370 
C4  0.39740   0.83780  -0.17280 
O4  0.12030   0.86030  -0.05080 
O3  0.01040   0.81180   0.09650 
O1  0.28570   0.58780  -0.08800 
O3  0.40360   0.78010   0.03450 
H2  0.36868   0.24670  -0.00548 
H2  0.30217   0.05387   0.15979 
H2  0.14005   0.18175   0.26531 
H2  0.04492   0.50446   0.20628 
H3  0.31897   0.89723  -0.22149 
H3  0.45815   0.96037  -0.15004 
H3  0.43805   0.72830  -0.22643 
H5  0.07316   0.98776  -0.06274 
space
P 21/c
library nodump ../Libraries/aaclp
